0 38 68 35 91 10 36 66 10 
38 0 90 91 31 38 50 45 10 
68 90 0 47 21 47 78 81 46 
35 91 47 0 10 13 56 66 45 
91 31 21 10 0 27 92 65 5 
10 38 47 13 27 0 27 31 27 
36 50 78 56 92 27 0 86 68 
66 45 81 66 65 31 86 0 18 
10 10 46 45 5 27 68 18 0 
